plate_width = 30;
n_circuits = 29;
n_shapes = 56;
widths = [6, 2, 10, 4, 4, 7, 11, 6, 2, 6, 10, 11, 4, 7, 4, 7, 7, 3, 6, 9, 1, 4, 6, 9, 2, 8, 3, 7, 5];
lengths = [18, 12, 7, 23, 1, 7, 4, 5, 7, 11, 19, 5, 2, 5, 2, 12, 13, 6, 10, 16, 4, 10, 24, 9, 1, 5, 5, 25, 21];
sizes = [| 6, 18 | 18, 6 | 2, 12 | 12, 2 | 10, 7 | 7, 10 | 4, 23 | 23, 4 | 4, 1 | 1, 4 | 7, 7 | 11, 4 | 4, 11 | 6, 5 | 5, 6 | 2, 7 | 7, 2 | 6, 11 | 11, 6 | 10, 19 | 19, 10 | 11, 5 | 5, 11 | 4, 2 | 2, 4 | 7, 5 | 5, 7 | 4, 2 | 2, 4 | 7, 12 | 12, 7 | 7, 13 | 13, 7 | 3, 6 | 6, 3 | 6, 10 | 10, 6 | 9, 16 | 16, 9 | 1, 4 | 4, 1 | 4, 10 | 10, 4 | 6, 24 | 24, 6 | 9, 9 | 2, 1 | 1, 2 | 8, 5 | 5, 8 | 3, 5 | 5, 3 | 7, 25 | 25, 7 | 5, 21 | 21, 5 |];
offsets = [| 0, 0 | 0, 0 | 0, 0 | 0, 0 | 0, 0 | 0, 0 | 0, 0 | 0, 0 | 0, 0 | 0, 0 | 0, 0 | 0, 0 | 0, 0 | 0, 0 | 0, 0 | 0, 0 | 0, 0 | 0, 0 | 0, 0 | 0, 0 | 0, 0 | 0, 0 | 0, 0 | 0, 0 | 0, 0 | 0, 0 | 0, 0 | 0, 0 | 0, 0 | 0, 0 | 0, 0 | 0, 0 | 0, 0 | 0, 0 | 0, 0 | 0, 0 | 0, 0 | 0, 0 | 0, 0 | 0, 0 | 0, 0 | 0, 0 | 0, 0 | 0, 0 | 0, 0 | 0, 0 | 0, 0 | 0, 0 | 0, 0 | 0, 0 | 0, 0 | 0, 0 | 0, 0 | 0, 0 | 0, 0 | 0, 0 |];
shapes = [{1}, {2}, {3}, {4}, {5}, {6}, {7}, {8}, {9}, {10}, {11}, {12}, {13}, {14}, {15}, {16}, {17}, {18}, {19}, {20}, {21}, {22}, {23}, {24}, {25}, {26}, {27}, {28}, {29}, {30}, {31}, {32}, {33}, {34}, {35}, {36}, {37}, {38}, {39}, {40}, {41}, {42}, {43}, {44}, {45}, {46}, {47}, {48}, {49}, {50}, {51}, {52}, {53}, {54}, {55}, {56}];
valid_shapes = [{1, 2}, {3, 4}, {5, 6}, {8, 7}, {9, 10}, {11}, {12, 13}, {14, 15}, {16, 17}, {18, 19}, {20, 21}, {22, 23}, {24, 25}, {26, 27}, {28, 29}, {30, 31}, {32, 33}, {34, 35}, {36, 37}, {38, 39}, {40, 41}, {42, 43}, {44, 45}, {46}, {48, 47}, {49, 50}, {51, 52}, {53, 54}, {56, 55}];